NAME : eil51.tour
COMMENT : Held-Karp solution of eil51 (length 426)
TYPE : TOUR
DIMENSION : 51
TOUR_SECTION
1
32
11
38
5
37
17
4
18
47
12
46
51
27
6
48
23
7
43
24
14
25
13
41
19
40
42
44
15
45
33
39
10
49
9
30
34
50
16
21
29
2
20
35
36
3
28
31
26
8
22
-1
EOF
